CPLEX/AMMM/project.1.dat
n = 6;
m = 4;

G =
[
  [ 0    0.3  0    0  	 0    0   ]
  [ 0.3  0    0    0.7	 0    0.7 ]
  [ 0    0    0    0.4	 0    0   ]
  [ 0    0.7  0.4  0  	 0.5  0.7 ]
  [ 0    0    0    0.5	 0    0   ]
  [ 0    0.7  0    0.7	 0    0   ]
];

H =
[
  [ 0    0.5  0    0   ]
  [ 0.5  0    0.6  0.6 ]
  [ 0    0.6  0    0.6 ]
  [ 0    0.6  0.6  0   ]
];
