CPLEX/AMMM/project.1.sol
OBJECTIVE: 0.3
f(1) = 5
f(2) = 4
f(3) = 6
f(4) = 2
